10	6	3.35
2 3 1 5 3 5 5 2 5 1 3 2 2 3 1 5 2 6 8
2 2 5 6 6 2 6 1 6 2 7 3 9 4 7 5 9 6 3
2 5 2 2 3 7 4 4 5 1 6 7 3 3 3 4 8 6 9
2 4 1 2 2 3 4 6 6 4 5 1 8 2 7 4 4 5 9 6 6
2 4 1 2 3 4 5 1 6 1 1 5 5
2 6 1 3 2 2 3 4 4 4 5 4 6 7 1 3 8
2 2 4 6 5 7 2 1 4 3 9
2 5 1 8 2 9 4 4 5 2 6 3 1 6 9
2 3 2 7 4 5 5 7 2 1 1 5 2
2 6 1 2 2 5 3 2 4 4 5 9 6 8 1 6 8
